59,64
68,67
81,85
84,34
153,6
136,94
168,39
141,54
155,27
30,89
7,82
31,31
159,76
178,50
7,79
20,60
44,12
158,8
85,9
101,53
3,13
164,98
88,65
147,93
149,96
182,52
46,93
148,32
51,11
192,1
67,13
42,96
174,9
86,7
90,9
154,52
99,100
137,66
126,24
20,14
146,85
191,48
103,9
105,7
162,63
87,90
23,23
148,64
11,87
79,43
